data;
set WEIGHTS := x0 x1 x2 x3 x4 x5 x6 x7 x8 x9 x10 x11 x12 x13 x14 x15 x16 x17 x18 x19 x20 x21 x22 x23;
param:  cost :=
  x0  209544
  x1  942106
  x2  266092
  x3  541416
  x4  830585
  x5  859231
  x6  995058
  x7  845585
  x8  355617
  x9  751656
  x10  139596
  x11  420971
  x12  780729
  x13  857600
  x14  154280
  x15  513271
  x16  83760
  x17  68972
  x18  911888
  x19  253814
  x20  993176
  x21  108523
  x22  154573
  x23  446553;
param cap := 6000000;